posx= [0 636 -8 -316 -232 -257 600 -316 -489 -495 -660 -397 -240 -123 -252 68 180
     42 -207 171 247 19 179 -202 -250 -126 -245 -271 259 353 103 -78 -819 -85
     -88 -100 -151 -194 -141 -177 -254 534 -462 -21 -186 -87 45 -187 -64 154
     -585 -441];
posy= [0 -198 -281 238 176 201 -225 -287 -348 -265 805 521 945 1114 161 251 -390
     -156 -224 122 -146 -42 28 186 325 718 760 653 313 71 -104 -46 117 105
     84 75 143 142 88 111 -303 -187 41 153 -152 266 790 191 2 153 530 1138];
